311,526
635,702
702,385
559,646
649,199
597,939
778,336
575,300
937,489
802,494
998,842
435,745
778,336
596,379
766,433
999,88
707,393
448,173
539,360
695,494
681,76
558,575
654,353
1080,535
639,364
761,446
518,726
708,491
